6948
2621
6905
10134
3053
9795
3986
841
9374
7301
6825
5484
482
8068
10153
9995
8207
8865
8769
6422
4955
1141
5272
6257
7282
9814
7621
5922
1114
5886
7751
7214
1344
603
6131
9932
6336
3745
8294
2178
6136
4580
1491
3634
5240
1838
534
8824
1754
9064
1318
